NAME : XML100_1331_24
DIMENSION : 101
NB_CLUSTERS : 4
CLUSTERING_ALG : KMedoids
CLUSTERING_PARAMS : k(3)
CLUSTERS
1 0
2 8 11 16 17 22 24 25 26 32 35 36 37 38 41 42 44 47 48 50 57 58 62 65 66 67 72 75 76 79 81 82 87 88 89 93
3 4 5 10 12 13 14 15 18 21 23 27 28 29 30 33 34 39 43 46 49 51 52 54 56 59 61 63 68 69 70 71 73 74 84 86 91 92 94 95 97 98 99
4 1 2 3 6 7 9 19 20 31 40 45 53 55 60 64 77 78 80 83 85 90 96 100
EOF